Maximize
  - 39 x0 - 45 x1 + 0 x2 + 0 x3 + 0 x4 + 0 x5 + 0 x6 + 0 x7 - 45 x8 - 34 x9
   - 18 x10 + 20 x11 + 0 x12 + 0 x13 + 0 x14 - 42 x15 + 0 x16 + 0 x17
   + 0 x18 + 0 x19 + 27 x20 + 8 x21 - 37 x22 + 0 x23 - 49 x24 - 35 x25
   + 32 x26 + 0 x27 + 0 x28 + 0 x29 + 0 x30 + 47 x31 - 25 x32 - 40 x33
   + 0 x34 - 6 x35 + 0 x36 + 0 x37 + 0 x38 + 0 x39 + [ - 5 x0 ^2
   - 80 x0 * x1 + 74 x0 * x2 + 34 x0 * x7 - 14 x0 * x8 - 88 x0 * x9
   + 46 x0 * x13 + 78 x0 * x14 - 32 x0 * x15 + 14 x0 * x16 + 42 x0 * x17
   + 80 x0 * x20 + 6 x0 * x22 - 36 x0 * x28 - 62 x0 * x36 + 22 x0 * x37
   - 12 x0 * x39 + 13 x1 ^2 + 4 x1 * x3 - 44 x1 * x7 - 72 x1 * x14
   + 26 x1 * x18 - 64 x1 * x20 - 82 x1 * x21 - 94 x1 * x23 + 64 x1 * x27
   - 42 x1 * x29 - 24 x1 * x30 + 72 x1 * x31 - 48 x1 * x33 - 84 x2 * x3
   + 2 x2 * x5 - 30 x2 * x6 - 8 x2 * x12 - 60 x2 * x14 - 12 x2 * x15
   - 58 x2 * x16 + 62 x2 * x20 + 82 x2 * x23 - 22 x2 * x24 - 92 x2 * x25
   - 48 x2 * x26 - 84 x2 * x29 - 14 x2 * x31 + 14 x2 * x33 - 20 x2 * x39
   + 22 x3 ^2 - 6 x3 * x4 - 6 x3 * x5 - 24 x3 * x12 - 70 x3 * x14
   + 70 x3 * x15 + 80 x3 * x21 - 98 x3 * x22 - 8 x3 * x23 + 94 x3 * x27
   + 14 x3 * x30 - 54 x3 * x31 - 4 x3 * x32 + 6 x3 * x34 - 18 x3 * x35
   + 92 x3 * x39 + 30 x4 * x8 + 2 x4 * x11 - 70 x4 * x16 - 62 x4 * x17
   + 86 x4 * x18 - 96 x4 * x25 - 16 x4 * x26 - 4 x4 * x28 + 30 x4 * x31
   + 54 x4 * x33 - 96 x4 * x34 - 56 x4 * x38 + 46 x5 * x6 + 84 x5 * x13
   + 82 x5 * x14 - 84 x5 * x16 + 80 x5 * x21 + 94 x5 * x22 - 50 x5 * x23
   + 6 x5 * x25 + 28 x5 * x26 - 8 x5 * x31 + 82 x5 * x33 + 78 x5 * x34
   - 94 x5 * x38 + 66 x6 * x7 + 20 x6 * x11 - 32 x6 * x13 + 6 x6 * x16
   - 20 x6 * x17 + 82 x6 * x19 - 92 x6 * x26 - 34 x6 * x29 + 76 x6 * x31
   + 10 x6 * x35 - 18 x6 * x38 - 10 x6 * x39 + 68 x7 * x9 + 94 x7 * x11
   + 28 x7 * x16 - 28 x7 * x17 + 96 x7 * x21 - 20 x7 * x22 + 92 x7 * x23
   + 50 x7 * x25 - 96 x7 * x26 + 64 x7 * x35 + 34 x7 * x36 + 16 x8 * x10
   + 76 x8 * x11 + 50 x8 * x19 + 14 x8 * x24 - 70 x8 * x26 + 80 x8 * x28
   - 56 x8 * x30 + 18 x8 * x33 + 38 x8 * x34 - 16 x8 * x36 - 72 x9 * x11
   - 10 x9 * x14 - 6 x9 * x15 + 54 x9 * x16 - 90 x9 * x17 + 70 x9 * x23
   + 40 x9 * x26 + 42 x9 * x28 - 60 x9 * x29 + 6 x9 * x31 + 36 x9 * x38
   + 94 x10 * x19 + 98 x10 * x20 - 32 x10 * x21 - 50 x10 * x22
   - 14 x10 * x24 + 50 x10 * x27 - 46 x10 * x30 - 90 x10 * x31
   + 76 x10 * x33 + 30 x10 * x37 - 34 x11 ^2 - 44 x11 * x12 - 36 x11 * x13
   - 10 x11 * x14 + 62 x11 * x15 + 96 x11 * x17 + 14 x11 * x18
   - 26 x11 * x19 - 18 x11 * x21 - 70 x11 * x23 + 76 x11 * x26
   + 32 x11 * x28 + 72 x11 * x31 - 42 x11 * x33 + 18 x11 * x35
   + 8 x11 * x38 + 96 x11 * x39 - 11 x12 ^2 - 28 x12 * x14 - 4 x12 * x15
   + 42 x12 * x16 + 64 x12 * x18 + 60 x12 * x27 + 6 x12 * x28
   + 80 x12 * x33 - 28 x12 * x35 + 16 x12 * x37 - 84 x12 * x39
   + 20 x13 * x17 - 8 x13 * x19 - 98 x13 * x22 - 94 x13 * x25
   + 58 x13 * x28 - 50 x13 * x30 + 74 x13 * x33 - 8 x13 * x35
   - 40 x13 * x36 + 10 x13 * x37 + 52 x13 * x38 - 44 x13 * x39
   + 76 x14 * x17 + 74 x14 * x18 - 14 x14 * x19 + 6 x14 * x22 - 6 x14 * x24
   - 26 x14 * x29 + 86 x14 * x30 - 2 x14 * x31 - 22 x14 * x32
   - 74 x14 * x37 + 88 x14 * x38 + 42 x14 * x39 + 7 x15 ^2 - 14 x15 * x17
   + 12 x15 * x18 + 4 x15 * x20 + 48 x15 * x21 - 70 x15 * x23
   + 56 x15 * x24 + 72 x15 * x25 + 70 x15 * x26 + 32 x15 * x30
   + 2 x15 * x31 - 30 x15 * x33 + 50 x15 * x36 - 4 x16 ^2 - 68 x16 * x17
   + 70 x16 * x20 + 10 x16 * x25 + 34 x16 * x26 + 10 x16 * x30
   + 56 x16 * x31 - 70 x16 * x32 + 26 x16 * x34 - 88 x16 * x37 - 42 x17 ^2
   + 72 x17 * x19 - 66 x17 * x24 + 72 x17 * x25 - 80 x17 * x26
   + 20 x17 * x28 + 80 x17 * x29 - 60 x17 * x30 + 52 x17 * x32
   - 70 x17 * x34 - 58 x17 * x35 - 10 x17 * x36 + 32 x17 * x39 - 44 x18 ^2
   - 2 x18 * x19 + 8 x18 * x23 + 70 x18 * x25 + 88 x18 * x34 + 44 x18 * x35
   + 38 x18 * x37 + 32 x18 * x39 + 48 x19 ^2 - 22 x19 * x22 + 38 x19 * x23
   + 70 x19 * x27 + 22 x19 * x28 - 2 x19 * x29 - 26 x19 * x30
   - 92 x19 * x31 + 76 x19 * x32 + 4 x19 * x37 - 20 x20 * x23
   + 50 x20 * x28 - 96 x20 * x29 - 66 x20 * x31 + 16 x20 * x33 + 21 x21 ^2
   + 76 x21 * x22 - 48 x21 * x25 + 18 x21 * x26 + 74 x21 * x28
   - 18 x21 * x29 - 26 x21 * x30 + 94 x21 * x32 + 64 x21 * x38
   + 74 x22 * x26 + 88 x22 * x27 - 12 x22 * x33 - 66 x22 * x36
   + 14 x22 * x37 - 66 x22 * x38 + 82 x23 * x25 + 72 x23 * x26
   + 22 x23 * x27 + 52 x23 * x30 - 24 x23 * x31 + 54 x23 * x32
   - 16 x23 * x36 - 62 x23 * x37 - 12 x24 ^2 + 42 x24 * x33 + 76 x24 * x34
   + 98 x24 * x38 - 98 x25 * x26 - 76 x25 * x27 - 70 x25 * x31
   + 94 x25 * x32 - 74 x25 * x36 - 98 x25 * x38 + 4 x25 * x39 + 42 x26 ^2
   - 16 x26 * x27 + 26 x26 * x28 - 22 x26 * x29 + 44 x26 * x32
   + 6 x26 * x35 - 76 x26 * x36 - 96 x27 * x30 + 76 x27 * x31
   - 68 x27 * x33 - 28 x27 * x34 - 70 x27 * x35 + 8 x28 * x30
   - 80 x28 * x34 - 46 x28 * x39 + 36 x29 * x35 - 28 x30 * x35
   - 50 x30 * x39 + 26 x31 * x32 + 82 x31 * x33 + 8 x31 * x37 - 6 x32 ^2
   + 98 x32 * x33 - 70 x32 * x35 + 78 x32 * x36 + 52 x32 * x37
   + 32 x33 * x34 - 66 x33 * x35 + 82 x33 * x36 - 28 x33 * x37
   - 84 x33 * x39 - 78 x34 * x35 + 2 x34 * x37 + 34 x36 ^2 - 24 x36 * x38
   - 70 x36 * x39 - 22 x37 * x38 - 33 x38 ^2 + 6 x38 * x39 - 9 x39 ^2
   ] / 2 
Subject To
Bounds
 x0 <= 1
 x1 <= 1
 x2 <= 1
 x3 <= 1
 x4 <= 1
 x5 <= 1
 x6 <= 1
 x7 <= 1
 x8 <= 1
 x9 <= 1
 x10 <= 1
 x11 <= 1
 x12 <= 1
 x13 <= 1
 x14 <= 1
 x15 <= 1
 x16 <= 1
 x17 <= 1
 x18 <= 1
 x19 <= 1
 x20 <= 1
 x21 <= 1
 x22 <= 1
 x23 <= 1
 x24 <= 1
 x25 <= 1
 x26 <= 1
 x27 <= 1
 x28 <= 1
 x29 <= 1
 x30 <= 1
 x31 <= 1
 x32 <= 1
 x33 <= 1
 x34 <= 1
 x35 <= 1
 x36 <= 1
 x37 <= 1
 x38 <= 1
 x39 <= 1
End
